c This DIMACS format CNF file was generated by SatSolver.cpp
c Do not edit.
p cnf 147 169
1 22 43 64 85 106 127 0
2 23 44 65 86 107 128 0
3 24 45 66 87 108 129 0
4 25 46 67 88 109 130 0
5 26 47 68 89 110 131 0
6 27 48 69 90 111 132 0
7 28 49 70 91 112 133 0
8 29 50 71 92 113 134 0
9 30 51 72 93 114 135 0
10 31 52 73 94 115 136 0
11 32 53 74 95 116 137 0
12 33 54 75 96 117 138 0
13 34 55 76 97 118 139 0
14 35 56 77 98 119 140 0
15 36 57 78 99 120 141 0
16 37 58 79 100 121 142 0
17 38 59 80 101 122 143 0
18 39 60 81 102 123 144 0
19 40 61 82 103 124 145 0
20 41 62 83 104 125 146 0
21 42 63 84 105 126 147 0
1 22 43 64 85 106 127 0
1 22 43 64 85 106 127 22 1 43 64 85 106 127 0
1 22 43 64 85 106 127 22 1 43 64 85 106 127 43 1 22 64 85 106 127 0
1 22 43 64 85 106 127 22 1 43 64 85 106 127 43 1 22 64 85 106 127 64 1 22 43 85 106 127 0
1 22 43 64 85 106 127 22 1 43 64 85 106 127 43 1 22 64 85 106 127 64 1 22 43 85 106 127 85 1 22 43 64 106 127 0
1 22 43 64 85 106 127 22 1 43 64 85 106 127 43 1 22 64 85 106 127 64 1 22 43 85 106 127 85 1 22 43 64 106 127 106 1 22 43 64 85 127 0
1 22 43 64 85 106 127 22 1 43 64 85 106 127 43 1 22 64 85 106 127 64 1 22 43 85 106 127 85 1 22 43 64 106 127 106 1 22 43 64 85 127 127 1 22 43 64 85 106 0
2 21 42 63 84 105 126 0
2 21 42 63 84 105 126 23 0 42 63 84 105 126 0
2 21 42 63 84 105 126 23 0 42 63 84 105 126 44 0 21 63 84 105 126 0
2 21 42 63 84 105 126 23 0 42 63 84 105 126 44 0 21 63 84 105 126 65 0 21 42 84 105 126 0
2 21 42 63 84 105 126 23 0 42 63 84 105 126 44 0 21 63 84 105 126 65 0 21 42 84 105 126 86 0 21 42 63 105 126 0
2 21 42 63 84 105 126 23 0 42 63 84 105 126 44 0 21 63 84 105 126 65 0 21 42 84 105 126 86 0 21 42 63 105 126 107 0 21 42 63 84 126 0
2 21 42 63 84 105 126 23 0 42 63 84 105 126 44 0 21 63 84 105 126 65 0 21 42 84 105 126 86 0 21 42 63 105 126 107 0 21 42 63 84 126 128 0 21 42 63 84 105 0
3 20 41 62 83 104 125 0
3 20 41 62 83 104 125 24 -1 41 62 83 104 125 0
3 20 41 62 83 104 125 24 -1 41 62 83 104 125 45 -1 20 62 83 104 125 0
3 20 41 62 83 104 125 24 -1 41 62 83 104 125 45 -1 20 62 83 104 125 66 -1 20 41 83 104 125 0
3 20 41 62 83 104 125 24 -1 41 62 83 104 125 45 -1 20 62 83 104 125 66 -1 20 41 83 104 125 87 -1 20 41 62 104 125 0
3 20 41 62 83 104 125 24 -1 41 62 83 104 125 45 -1 20 62 83 104 125 66 -1 20 41 83 104 125 87 -1 20 41 62 104 125 108 -1 20 41 62 83 125 0
3 20 41 62 83 104 125 24 -1 41 62 83 104 125 45 -1 20 62 83 104 125 66 -1 20 41 83 104 125 87 -1 20 41 62 104 125 108 -1 20 41 62 83 125 129 -1 20 41 62 83 104 0
4 19 40 61 82 103 124 0
4 19 40 61 82 103 124 25 -2 40 61 82 103 124 0
4 19 40 61 82 103 124 25 -2 40 61 82 103 124 46 -2 19 61 82 103 124 0
4 19 40 61 82 103 124 25 -2 40 61 82 103 124 46 -2 19 61 82 103 124 67 -2 19 40 82 103 124 0
4 19 40 61 82 103 124 25 -2 40 61 82 103 124 46 -2 19 61 82 103 124 67 -2 19 40 82 103 124 88 -2 19 40 61 103 124 0
4 19 40 61 82 103 124 25 -2 40 61 82 103 124 46 -2 19 61 82 103 124 67 -2 19 40 82 103 124 88 -2 19 40 61 103 124 109 -2 19 40 61 82 124 0
4 19 40 61 82 103 124 25 -2 40 61 82 103 124 46 -2 19 61 82 103 124 67 -2 19 40 82 103 124 88 -2 19 40 61 103 124 109 -2 19 40 61 82 124 130 -2 19 40 61 82 103 0
5 18 39 60 81 102 123 0
5 18 39 60 81 102 123 26 -3 39 60 81 102 123 0
5 18 39 60 81 102 123 26 -3 39 60 81 102 123 47 -3 18 60 81 102 123 0
5 18 39 60 81 102 123 26 -3 39 60 81 102 123 47 -3 18 60 81 102 123 68 -3 18 39 81 102 123 0
5 18 39 60 81 102 123 26 -3 39 60 81 102 123 47 -3 18 60 81 102 123 68 -3 18 39 81 102 123 89 -3 18 39 60 102 123 0
5 18 39 60 81 102 123 26 -3 39 60 81 102 123 47 -3 18 60 81 102 123 68 -3 18 39 81 102 123 89 -3 18 39 60 102 123 110 -3 18 39 60 81 123 0
5 18 39 60 81 102 123 26 -3 39 60 81 102 123 47 -3 18 60 81 102 123 68 -3 18 39 81 102 123 89 -3 18 39 60 102 123 110 -3 18 39 60 81 123 131 -3 18 39 60 81 102 0
6 17 38 59 80 101 122 0
6 17 38 59 80 101 122 27 -4 38 59 80 101 122 0
6 17 38 59 80 101 122 27 -4 38 59 80 101 122 48 -4 17 59 80 101 122 0
6 17 38 59 80 101 122 27 -4 38 59 80 101 122 48 -4 17 59 80 101 122 69 -4 17 38 80 101 122 0
6 17 38 59 80 101 122 27 -4 38 59 80 101 122 48 -4 17 59 80 101 122 69 -4 17 38 80 101 122 90 -4 17 38 59 101 122 0
6 17 38 59 80 101 122 27 -4 38 59 80 101 122 48 -4 17 59 80 101 122 69 -4 17 38 80 101 122 90 -4 17 38 59 101 122 111 -4 17 38 59 80 122 0
6 17 38 59 80 101 122 27 -4 38 59 80 101 122 48 -4 17 59 80 101 122 69 -4 17 38 80 101 122 90 -4 17 38 59 101 122 111 -4 17 38 59 80 122 132 -4 17 38 59 80 101 0
7 16 37 58 79 100 121 0
7 16 37 58 79 100 121 28 -5 37 58 79 100 121 0
7 16 37 58 79 100 121 28 -5 37 58 79 100 121 49 -5 16 58 79 100 121 0
7 16 37 58 79 100 121 28 -5 37 58 79 100 121 49 -5 16 58 79 100 121 70 -5 16 37 79 100 121 0
7 16 37 58 79 100 121 28 -5 37 58 79 100 121 49 -5 16 58 79 100 121 70 -5 16 37 79 100 121 91 -5 16 37 58 100 121 0
7 16 37 58 79 100 121 28 -5 37 58 79 100 121 49 -5 16 58 79 100 121 70 -5 16 37 79 100 121 91 -5 16 37 58 100 121 112 -5 16 37 58 79 121 0
7 16 37 58 79 100 121 28 -5 37 58 79 100 121 49 -5 16 58 79 100 121 70 -5 16 37 79 100 121 91 -5 16 37 58 100 121 112 -5 16 37 58 79 121 133 -5 16 37 58 79 100 0
8 15 36 57 78 99 120 0
8 15 36 57 78 99 120 29 -6 36 57 78 99 120 0
8 15 36 57 78 99 120 29 -6 36 57 78 99 120 50 -6 15 57 78 99 120 0
8 15 36 57 78 99 120 29 -6 36 57 78 99 120 50 -6 15 57 78 99 120 71 -6 15 36 78 99 120 0
8 15 36 57 78 99 120 29 -6 36 57 78 99 120 50 -6 15 57 78 99 120 71 -6 15 36 78 99 120 92 -6 15 36 57 99 120 0
8 15 36 57 78 99 120 29 -6 36 57 78 99 120 50 -6 15 57 78 99 120 71 -6 15 36 78 99 120 92 -6 15 36 57 99 120 113 -6 15 36 57 78 120 0
8 15 36 57 78 99 120 29 -6 36 57 78 99 120 50 -6 15 57 78 99 120 71 -6 15 36 78 99 120 92 -6 15 36 57 99 120 113 -6 15 36 57 78 120 134 -6 15 36 57 78 99 0
9 14 35 56 77 98 119 0
9 14 35 56 77 98 119 30 -7 35 56 77 98 119 0
9 14 35 56 77 98 119 30 -7 35 56 77 98 119 51 -7 14 56 77 98 119 0
9 14 35 56 77 98 119 30 -7 35 56 77 98 119 51 -7 14 56 77 98 119 72 -7 14 35 77 98 119 0
9 14 35 56 77 98 119 30 -7 35 56 77 98 119 51 -7 14 56 77 98 119 72 -7 14 35 77 98 119 93 -7 14 35 56 98 119 0
9 14 35 56 77 98 119 30 -7 35 56 77 98 119 51 -7 14 56 77 98 119 72 -7 14 35 77 98 119 93 -7 14 35 56 98 119 114 -7 14 35 56 77 119 0
9 14 35 56 77 98 119 30 -7 35 56 77 98 119 51 -7 14 56 77 98 119 72 -7 14 35 77 98 119 93 -7 14 35 56 98 119 114 -7 14 35 56 77 119 135 -7 14 35 56 77 98 0
10 13 34 55 76 97 118 0
10 13 34 55 76 97 118 31 -8 34 55 76 97 118 0
10 13 34 55 76 97 118 31 -8 34 55 76 97 118 52 -8 13 55 76 97 118 0
10 13 34 55 76 97 118 31 -8 34 55 76 97 118 52 -8 13 55 76 97 118 73 -8 13 34 76 97 118 0
10 13 34 55 76 97 118 31 -8 34 55 76 97 118 52 -8 13 55 76 97 118 73 -8 13 34 76 97 118 94 -8 13 34 55 97 118 0
10 13 34 55 76 97 118 31 -8 34 55 76 97 118 52 -8 13 55 76 97 118 73 -8 13 34 76 97 118 94 -8 13 34 55 97 118 115 -8 13 34 55 76 118 0
10 13 34 55 76 97 118 31 -8 34 55 76 97 118 52 -8 13 55 76 97 118 73 -8 13 34 76 97 118 94 -8 13 34 55 97 118 115 -8 13 34 55 76 118 136 -8 13 34 55 76 97 0
11 12 33 54 75 96 117 0
11 12 33 54 75 96 117 32 -9 33 54 75 96 117 0
11 12 33 54 75 96 117 32 -9 33 54 75 96 117 53 -9 12 54 75 96 117 0
11 12 33 54 75 96 117 32 -9 33 54 75 96 117 53 -9 12 54 75 96 117 74 -9 12 33 75 96 117 0
11 12 33 54 75 96 117 32 -9 33 54 75 96 117 53 -9 12 54 75 96 117 74 -9 12 33 75 96 117 95 -9 12 33 54 96 117 0
11 12 33 54 75 96 117 32 -9 33 54 75 96 117 53 -9 12 54 75 96 117 74 -9 12 33 75 96 117 95 -9 12 33 54 96 117 116 -9 12 33 54 75 117 0
11 12 33 54 75 96 117 32 -9 33 54 75 96 117 53 -9 12 54 75 96 117 74 -9 12 33 75 96 117 95 -9 12 33 54 96 117 116 -9 12 33 54 75 117 137 -9 12 33 54 75 96 0
12 11 32 53 74 95 116 0
12 11 32 53 74 95 116 33 -10 32 53 74 95 116 0
12 11 32 53 74 95 116 33 -10 32 53 74 95 116 54 -10 11 53 74 95 116 0
12 11 32 53 74 95 116 33 -10 32 53 74 95 116 54 -10 11 53 74 95 116 75 -10 11 32 74 95 116 0
12 11 32 53 74 95 116 33 -10 32 53 74 95 116 54 -10 11 53 74 95 116 75 -10 11 32 74 95 116 96 -10 11 32 53 95 116 0
12 11 32 53 74 95 116 33 -10 32 53 74 95 116 54 -10 11 53 74 95 116 75 -10 11 32 74 95 116 96 -10 11 32 53 95 116 117 -10 11 32 53 74 116 0
12 11 32 53 74 95 116 33 -10 32 53 74 95 116 54 -10 11 53 74 95 116 75 -10 11 32 74 95 116 96 -10 11 32 53 95 116 117 -10 11 32 53 74 116 138 -10 11 32 53 74 95 0
13 10 31 52 73 94 115 0
13 10 31 52 73 94 115 34 -11 31 52 73 94 115 0
13 10 31 52 73 94 115 34 -11 31 52 73 94 115 55 -11 10 52 73 94 115 0
13 10 31 52 73 94 115 34 -11 31 52 73 94 115 55 -11 10 52 73 94 115 76 -11 10 31 73 94 115 0
13 10 31 52 73 94 115 34 -11 31 52 73 94 115 55 -11 10 52 73 94 115 76 -11 10 31 73 94 115 97 -11 10 31 52 94 115 0
13 10 31 52 73 94 115 34 -11 31 52 73 94 115 55 -11 10 52 73 94 115 76 -11 10 31 73 94 115 97 -11 10 31 52 94 115 118 -11 10 31 52 73 115 0
13 10 31 52 73 94 115 34 -11 31 52 73 94 115 55 -11 10 52 73 94 115 76 -11 10 31 73 94 115 97 -11 10 31 52 94 115 118 -11 10 31 52 73 115 139 -11 10 31 52 73 94 0
14 9 30 51 72 93 114 0
14 9 30 51 72 93 114 35 -12 30 51 72 93 114 0
14 9 30 51 72 93 114 35 -12 30 51 72 93 114 56 -12 9 51 72 93 114 0
14 9 30 51 72 93 114 35 -12 30 51 72 93 114 56 -12 9 51 72 93 114 77 -12 9 30 72 93 114 0
14 9 30 51 72 93 114 35 -12 30 51 72 93 114 56 -12 9 51 72 93 114 77 -12 9 30 72 93 114 98 -12 9 30 51 93 114 0
14 9 30 51 72 93 114 35 -12 30 51 72 93 114 56 -12 9 51 72 93 114 77 -12 9 30 72 93 114 98 -12 9 30 51 93 114 119 -12 9 30 51 72 114 0
14 9 30 51 72 93 114 35 -12 30 51 72 93 114 56 -12 9 51 72 93 114 77 -12 9 30 72 93 114 98 -12 9 30 51 93 114 119 -12 9 30 51 72 114 140 -12 9 30 51 72 93 0
15 8 29 50 71 92 113 0
15 8 29 50 71 92 113 36 -13 29 50 71 92 113 0
15 8 29 50 71 92 113 36 -13 29 50 71 92 113 57 -13 8 50 71 92 113 0
15 8 29 50 71 92 113 36 -13 29 50 71 92 113 57 -13 8 50 71 92 113 78 -13 8 29 71 92 113 0
15 8 29 50 71 92 113 36 -13 29 50 71 92 113 57 -13 8 50 71 92 113 78 -13 8 29 71 92 113 99 -13 8 29 50 92 113 0
15 8 29 50 71 92 113 36 -13 29 50 71 92 113 57 -13 8 50 71 92 113 78 -13 8 29 71 92 113 99 -13 8 29 50 92 113 120 -13 8 29 50 71 113 0
15 8 29 50 71 92 113 36 -13 29 50 71 92 113 57 -13 8 50 71 92 113 78 -13 8 29 71 92 113 99 -13 8 29 50 92 113 120 -13 8 29 50 71 113 141 -13 8 29 50 71 92 0
16 7 28 49 70 91 112 0
16 7 28 49 70 91 112 37 -14 28 49 70 91 112 0
16 7 28 49 70 91 112 37 -14 28 49 70 91 112 58 -14 7 49 70 91 112 0
16 7 28 49 70 91 112 37 -14 28 49 70 91 112 58 -14 7 49 70 91 112 79 -14 7 28 70 91 112 0
16 7 28 49 70 91 112 37 -14 28 49 70 91 112 58 -14 7 49 70 91 112 79 -14 7 28 70 91 112 100 -14 7 28 49 91 112 0
16 7 28 49 70 91 112 37 -14 28 49 70 91 112 58 -14 7 49 70 91 112 79 -14 7 28 70 91 112 100 -14 7 28 49 91 112 121 -14 7 28 49 70 112 0
16 7 28 49 70 91 112 37 -14 28 49 70 91 112 58 -14 7 49 70 91 112 79 -14 7 28 70 91 112 100 -14 7 28 49 91 112 121 -14 7 28 49 70 112 142 -14 7 28 49 70 91 0
17 6 27 48 69 90 111 0
17 6 27 48 69 90 111 38 -15 27 48 69 90 111 0
17 6 27 48 69 90 111 38 -15 27 48 69 90 111 59 -15 6 48 69 90 111 0
17 6 27 48 69 90 111 38 -15 27 48 69 90 111 59 -15 6 48 69 90 111 80 -15 6 27 69 90 111 0
17 6 27 48 69 90 111 38 -15 27 48 69 90 111 59 -15 6 48 69 90 111 80 -15 6 27 69 90 111 101 -15 6 27 48 90 111 0
17 6 27 48 69 90 111 38 -15 27 48 69 90 111 59 -15 6 48 69 90 111 80 -15 6 27 69 90 111 101 -15 6 27 48 90 111 122 -15 6 27 48 69 111 0
17 6 27 48 69 90 111 38 -15 27 48 69 90 111 59 -15 6 48 69 90 111 80 -15 6 27 69 90 111 101 -15 6 27 48 90 111 122 -15 6 27 48 69 111 143 -15 6 27 48 69 90 0
18 5 26 47 68 89 110 0
18 5 26 47 68 89 110 39 -16 26 47 68 89 110 0
18 5 26 47 68 89 110 39 -16 26 47 68 89 110 60 -16 5 47 68 89 110 0
18 5 26 47 68 89 110 39 -16 26 47 68 89 110 60 -16 5 47 68 89 110 81 -16 5 26 68 89 110 0
18 5 26 47 68 89 110 39 -16 26 47 68 89 110 60 -16 5 47 68 89 110 81 -16 5 26 68 89 110 102 -16 5 26 47 89 110 0
18 5 26 47 68 89 110 39 -16 26 47 68 89 110 60 -16 5 47 68 89 110 81 -16 5 26 68 89 110 102 -16 5 26 47 89 110 123 -16 5 26 47 68 110 0
18 5 26 47 68 89 110 39 -16 26 47 68 89 110 60 -16 5 47 68 89 110 81 -16 5 26 68 89 110 102 -16 5 26 47 89 110 123 -16 5 26 47 68 110 144 -16 5 26 47 68 89 0
19 4 25 46 67 88 109 0
19 4 25 46 67 88 109 40 -17 25 46 67 88 109 0
19 4 25 46 67 88 109 40 -17 25 46 67 88 109 61 -17 4 46 67 88 109 0
19 4 25 46 67 88 109 40 -17 25 46 67 88 109 61 -17 4 46 67 88 109 82 -17 4 25 67 88 109 0
19 4 25 46 67 88 109 40 -17 25 46 67 88 109 61 -17 4 46 67 88 109 82 -17 4 25 67 88 109 103 -17 4 25 46 88 109 0
19 4 25 46 67 88 109 40 -17 25 46 67 88 109 61 -17 4 46 67 88 109 82 -17 4 25 67 88 109 103 -17 4 25 46 88 109 124 -17 4 25 46 67 109 0
19 4 25 46 67 88 109 40 -17 25 46 67 88 109 61 -17 4 46 67 88 109 82 -17 4 25 67 88 109 103 -17 4 25 46 88 109 124 -17 4 25 46 67 109 145 -17 4 25 46 67 88 0
20 3 24 45 66 87 108 0
20 3 24 45 66 87 108 41 -18 24 45 66 87 108 0
20 3 24 45 66 87 108 41 -18 24 45 66 87 108 62 -18 3 45 66 87 108 0
20 3 24 45 66 87 108 41 -18 24 45 66 87 108 62 -18 3 45 66 87 108 83 -18 3 24 66 87 108 0
20 3 24 45 66 87 108 41 -18 24 45 66 87 108 62 -18 3 45 66 87 108 83 -18 3 24 66 87 108 104 -18 3 24 45 87 108 0
20 3 24 45 66 87 108 41 -18 24 45 66 87 108 62 -18 3 45 66 87 108 83 -18 3 24 66 87 108 104 -18 3 24 45 87 108 125 -18 3 24 45 66 108 0
20 3 24 45 66 87 108 41 -18 24 45 66 87 108 62 -18 3 45 66 87 108 83 -18 3 24 66 87 108 104 -18 3 24 45 87 108 125 -18 3 24 45 66 108 146 -18 3 24 45 66 87 0
21 2 23 44 65 86 107 0
21 2 23 44 65 86 107 42 -19 23 44 65 86 107 0
21 2 23 44 65 86 107 42 -19 23 44 65 86 107 63 -19 2 44 65 86 107 0
21 2 23 44 65 86 107 42 -19 23 44 65 86 107 63 -19 2 44 65 86 107 84 -19 2 23 65 86 107 0
21 2 23 44 65 86 107 42 -19 23 44 65 86 107 63 -19 2 44 65 86 107 84 -19 2 23 65 86 107 105 -19 2 23 44 86 107 0
21 2 23 44 65 86 107 42 -19 23 44 65 86 107 63 -19 2 44 65 86 107 84 -19 2 23 65 86 107 105 -19 2 23 44 86 107 126 -19 2 23 44 65 107 0
21 2 23 44 65 86 107 42 -19 23 44 65 86 107 63 -19 2 44 65 86 107 84 -19 2 23 65 86 107 105 -19 2 23 44 86 107 126 -19 2 23 44 65 107 147 -19 2 23 44 65 86 0
147 0
